(set-logic QF_LRA)
(declare-fun X0 () Real )
(declare-fun Y0 () Real )
(declare-fun X1 () Real )
(declare-fun Y1 () Real )
(declare-fun X2 () Real )
(declare-fun Y2 () Real )
(declare-fun X3 () Real )
(declare-fun Y3 () Real )
(declare-fun X4 () Real )
(declare-fun Y4 () Real )
(declare-fun X5 () Real )
(declare-fun Y5 () Real )
(declare-fun X6 () Real )
(declare-fun Y6 () Real )
(declare-fun X7 () Real )
(declare-fun Y7 () Real )
(declare-fun X8 () Real )
(declare-fun Y8 () Real )
(declare-fun Z () Real )
(assert ( and  
( or ( <= ( + X0 13 ) X1 )  ( <= ( + X1 25 ) X0 )  ( <= ( + Y0 15 ) Y1 )  ( <= ( + Y1 72 ) Y0 )  )
( or ( <= ( + X0 13 ) X2 )  ( <= ( + X2 30 ) X0 )  ( <= ( + Y0 15 ) Y2 )  ( <= ( + Y2 35 ) Y0 )  )
( or ( <= ( + X0 13 ) X3 )  ( <= ( + X3 90 ) X0 )  ( <= ( + Y0 15 ) Y3 )  ( <= ( + Y3 11 ) Y0 )  )
( or ( <= ( + X0 13 ) X4 )  ( <= ( + X4 53 ) X0 )  ( <= ( + Y0 15 ) Y4 )  ( <= ( + Y4 95 ) Y0 )  )
( or ( <= ( + X0 13 ) X5 )  ( <= ( + X5 62 ) X0 )  ( <= ( + Y0 15 ) Y5 )  ( <= ( + Y5 17 ) Y0 )  )
( or ( <= ( + X0 13 ) X6 )  ( <= ( + X6 49 ) X0 )  ( <= ( + Y0 15 ) Y6 )  ( <= ( + Y6 39 ) Y0 )  )
( or ( <= ( + X0 13 ) X7 )  ( <= ( + X7 19 ) X0 )  ( <= ( + Y0 15 ) Y7 )  ( <= ( + Y7 70 ) Y0 )  )
( or ( <= ( + X0 13 ) X8 )  ( <= ( + X8 78 ) X0 )  ( <= ( + Y0 15 ) Y8 )  ( <= ( + Y8 75 ) Y0 )  )
( or ( <= ( + X1 25 ) X2 )  ( <= ( + X2 30 ) X1 )  ( <= ( + Y1 72 ) Y2 )  ( <= ( + Y2 35 ) Y1 )  )
( or ( <= ( + X1 25 ) X3 )  ( <= ( + X3 90 ) X1 )  ( <= ( + Y1 72 ) Y3 )  ( <= ( + Y3 11 ) Y1 )  )
( or ( <= ( + X1 25 ) X4 )  ( <= ( + X4 53 ) X1 )  ( <= ( + Y1 72 ) Y4 )  ( <= ( + Y4 95 ) Y1 )  )
( or ( <= ( + X1 25 ) X5 )  ( <= ( + X5 62 ) X1 )  ( <= ( + Y1 72 ) Y5 )  ( <= ( + Y5 17 ) Y1 )  )
( or ( <= ( + X1 25 ) X6 )  ( <= ( + X6 49 ) X1 )  ( <= ( + Y1 72 ) Y6 )  ( <= ( + Y6 39 ) Y1 )  )
( or ( <= ( + X1 25 ) X7 )  ( <= ( + X7 19 ) X1 )  ( <= ( + Y1 72 ) Y7 )  ( <= ( + Y7 70 ) Y1 )  )
( or ( <= ( + X1 25 ) X8 )  ( <= ( + X8 78 ) X1 )  ( <= ( + Y1 72 ) Y8 )  ( <= ( + Y8 75 ) Y1 )  )
( or ( <= ( + X2 30 ) X3 )  ( <= ( + X3 90 ) X2 )  ( <= ( + Y2 35 ) Y3 )  ( <= ( + Y3 11 ) Y2 )  )
( or ( <= ( + X2 30 ) X4 )  ( <= ( + X4 53 ) X2 )  ( <= ( + Y2 35 ) Y4 )  ( <= ( + Y4 95 ) Y2 )  )
( or ( <= ( + X2 30 ) X5 )  ( <= ( + X5 62 ) X2 )  ( <= ( + Y2 35 ) Y5 )  ( <= ( + Y5 17 ) Y2 )  )
( or ( <= ( + X2 30 ) X6 )  ( <= ( + X6 49 ) X2 )  ( <= ( + Y2 35 ) Y6 )  ( <= ( + Y6 39 ) Y2 )  )
( or ( <= ( + X2 30 ) X7 )  ( <= ( + X7 19 ) X2 )  ( <= ( + Y2 35 ) Y7 )  ( <= ( + Y7 70 ) Y2 )  )
( or ( <= ( + X2 30 ) X8 )  ( <= ( + X8 78 ) X2 )  ( <= ( + Y2 35 ) Y8 )  ( <= ( + Y8 75 ) Y2 )  )
( or ( <= ( + X3 90 ) X4 )  ( <= ( + X4 53 ) X3 )  ( <= ( + Y3 11 ) Y4 )  ( <= ( + Y4 95 ) Y3 )  )
( or ( <= ( + X3 90 ) X5 )  ( <= ( + X5 62 ) X3 )  ( <= ( + Y3 11 ) Y5 )  ( <= ( + Y5 17 ) Y3 )  )
( or ( <= ( + X3 90 ) X6 )  ( <= ( + X6 49 ) X3 )  ( <= ( + Y3 11 ) Y6 )  ( <= ( + Y6 39 ) Y3 )  )
( or ( <= ( + X3 90 ) X7 )  ( <= ( + X7 19 ) X3 )  ( <= ( + Y3 11 ) Y7 )  ( <= ( + Y7 70 ) Y3 )  )
( or ( <= ( + X3 90 ) X8 )  ( <= ( + X8 78 ) X3 )  ( <= ( + Y3 11 ) Y8 )  ( <= ( + Y8 75 ) Y3 )  )
( or ( <= ( + X4 53 ) X5 )  ( <= ( + X5 62 ) X4 )  ( <= ( + Y4 95 ) Y5 )  ( <= ( + Y5 17 ) Y4 )  )
( or ( <= ( + X4 53 ) X6 )  ( <= ( + X6 49 ) X4 )  ( <= ( + Y4 95 ) Y6 )  ( <= ( + Y6 39 ) Y4 )  )
( or ( <= ( + X4 53 ) X7 )  ( <= ( + X7 19 ) X4 )  ( <= ( + Y4 95 ) Y7 )  ( <= ( + Y7 70 ) Y4 )  )
( or ( <= ( + X4 53 ) X8 )  ( <= ( + X8 78 ) X4 )  ( <= ( + Y4 95 ) Y8 )  ( <= ( + Y8 75 ) Y4 )  )
( or ( <= ( + X5 62 ) X6 )  ( <= ( + X6 49 ) X5 )  ( <= ( + Y5 17 ) Y6 )  ( <= ( + Y6 39 ) Y5 )  )
( or ( <= ( + X5 62 ) X7 )  ( <= ( + X7 19 ) X5 )  ( <= ( + Y5 17 ) Y7 )  ( <= ( + Y7 70 ) Y5 )  )
( or ( <= ( + X5 62 ) X8 )  ( <= ( + X8 78 ) X5 )  ( <= ( + Y5 17 ) Y8 )  ( <= ( + Y8 75 ) Y5 )  )
( or ( <= ( + X6 49 ) X7 )  ( <= ( + X7 19 ) X6 )  ( <= ( + Y6 39 ) Y7 )  ( <= ( + Y7 70 ) Y6 )  )
( or ( <= ( + X6 49 ) X8 )  ( <= ( + X8 78 ) X6 )  ( <= ( + Y6 39 ) Y8 )  ( <= ( + Y8 75 ) Y6 )  )
( or ( <= ( + X7 19 ) X8 )  ( <= ( + X8 78 ) X7 )  ( <= ( + Y7 70 ) Y8 )  ( <= ( + Y8 75 ) Y7 )  )
( >= X0 0)
( <= ( + X0 13) Z)
( >= Y0 0)
( <= ( + Y0 15 ) 100)
( >= X1 0)
( <= ( + X1 25) Z)
( >= Y1 0)
( <= ( + Y1 72 ) 100)
( >= X2 0)
( <= ( + X2 30) Z)
( >= Y2 0)
( <= ( + Y2 35 ) 100)
( >= X3 0)
( <= ( + X3 90) Z)
( >= Y3 0)
( <= ( + Y3 11 ) 100)
( >= X4 0)
( <= ( + X4 53) Z)
( >= Y4 0)
( <= ( + Y4 95 ) 100)
( >= X5 0)
( <= ( + X5 62) Z)
( >= Y5 0)
( <= ( + Y5 17 ) 100)
( >= X6 0)
( <= ( + X6 49) Z)
( >= Y6 0)
( <= ( + Y6 39 ) 100)
( >= X7 0)
( <= ( + X7 19) Z)
( >= Y7 0)
( <= ( + Y7 70 ) 100)
( >= X8 0)
( <= ( + X8 78) Z)
( >= Y8 0)
( <= ( + Y8 75 ) 100)
) )
(minimize Z)
(check-sat)
